Global Parameters
ISTART =  0            (Not Read existing wavefunction; if there)
ISPIN  =  1            (Non-Spin polarised DFT, Default=1)

ICHARG =  2            (The initial guess charge density is generated by superposition of atomic charge density)
LREAL  =  Auto         (Projection operators: automatic)
ENCUT  =  520          (Cut-off energy for plane wave basis set, in eV)

IVDW   =  12           (The many-body dispersion energy method, including this calculation)

LWAVE  = .FALSE.       (Write WAVECAR or not)
LCHARG = .FALSE.       (Write CHGCAR or not)

PREC     =  Accurate   (Precision level)
KGAMMA   = .TRUE.      # GAMMA point
KSPACING = 0.15        # Automatically calculate k-points
ALGO     = Normal

Static Calculation
NSW    =   1           (Default: NSW = 0)
IBRION =  -1           (Ions are not moved)
ISMEAR =  -5           (gaussian smearing method)

EDIFF  =  1E-06        (SCF energy convergence; in eV)

NELM   =  150          (Max electronic SCF steps)

KPAR   =  8            # make 4 groups, each group working on one set of k-points
NCORE  =  8           # one orbital handled by 4 cores

